language Essence 1.3

letting class be function(1 --> 1, 2 --> 3, 3 --> 1, 4 --> 4, 5 --> 5, 6 --> 2, 7 --> 6)
letting deck_length be 3
letting deck_width be 40
letting length be function(1 --> 3, 2 --> 3, 3 --> 2, 4 --> 3, 5 --> 3, 6 --> 1, 7 --> 1)
letting n_classes be 6
letting n_containers be 7
letting separation be function({1, 2} --> 32, {1, 3} --> 26, {2, 6} --> 6)
letting width be function(1 --> 15, 2 --> 6, 3 --> 1, 4 --> 1, 5 --> 11, 6 --> 2, 7 --> 3)
